# Solution for model count
# Objective value = 10
z#1 1
z#2 1
z#3 0
z#4 1
z#5 1
z#6 0
z#7 0
z#8 1
z#9 1
z#10 0
z#11 0
z#12 0
z#13 1
z#14 0
z#15 0
z#16 0
z#17 0
z#18 1
z#19 1
z#20 0
z#21 0
z#22 0
z#23 1
z#24 0
x#24 0
x#23 400
x#22 0
x#21 0
x#20 0
x#19 1877
x#18 796
x#17 0
x#16 0
x#15 0
x#14 0
x#13 724
x#12 0
x#11 0
x#10 0
x#9 1125
x#8 1462
x#7 0
x#6 0
x#5 1023
x#4 1415
x#3 0
x#2 434
x#1 744
